NAME: I9062-n21-k5
COMMENT : (Fake et al, No of trucks: 5, Optimal value: )
TYPE : CVRP
DIMENSION : 21
EDGE_WEIGHT_TYPE : EUC_2D
CAPACITY : 17
NODE_COORD_SECTION
1 585 558
2 535 450
3 87 233
4 769 162
5 421 336
6 874 85
7 881 807
8 561 727
9 949 758
10 152 465
11 505 989
12 520 63
13 756 710
14 441 603
15 742 614
16 869 207
17 566 127
18 603 75
19 14 938
20 831 670
21 306 561
DEMAND_SECTION
1 0
2 7
3 6
4 2
5 4
6 6
7 2
8 3
9 2
10 6
11 1
12 1
13 3
14 7
15 3
16 5
17 6
18 3
19 1
20 3
21 7
DEPOT_SECTION
 1
 -1
 EOF 